StudentsNr = 10;
InstructorsNr = 82;
DaysNr = 2;
SlotsPerDay = 20;
AvailabilitySlotsLenght = 10;
RoomNr = 2;
ProgrammNr = 2;
DegreeNr = 2;
RolesNr = 2;
CoursesNr = 3;
InstructorsProgramm = [{1}, {1}, {1}, {2}, {2}, {2}, {1}, {1}, {2}, {2}, {1, 2}, {1}, {1}, {1, 2}, {1, 2}, {2}, {2}, {2}, {2}, {1, 2}, {1, 2}, {2}, {1}, {1}, {2}, {2}, {1}, {2}, {2}, {2}, {1}, {2}, {1}, {2}, {1, 2}, {2}, {2}, {1, 2}, {2}, {2}, {1}, {2}, {1}, {1, 2}, {1, 2}, {1}, {2}, {2}, {1}, {2}, {1}, {2}, {1}, {1, 2}, {1, 2}, {2}, {2}, {1, 2}, {1, 2}, {2}, {2}, {1, 2}, {1}, {2}, {1}, {1}, {1, 2}, {2}, {1}, {2}, {2}, {1}, {1}, {1}, {1, 2}, {1, 2}, {2}, {1}, {2}, {2}, {1}, {2}];
InstructorRolesPerProgramm = [|{2, 3, 8, 11, 14, 23, 24, 35, 44, 45, 46, 49, 69, 73, 75, 76, 81}, {1, 3, 8, 11, 12, 21, 23, 27, 41, 43, 44, 45, 49, 51, 54, 62, 67, 72, 75}|{5, 9, 11, 14, 17, 19, 26, 28, 30, 32, 34, 35, 39, 44, 45, 60, 61, 75, 76, 77, 80}, {4, 10, 11, 19, 21, 25, 28, 36, 37, 39, 42, 44, 45, 48, 50, 52, 54, 56, 60, 62, 67, 70, 75, 77, 79}|];
InstructorsAvailability = [|0, 0, 1, 0, |1, 1, 1, 1, |0, 1, 1, 0, |0, 0, 1, 1, |0, 1, 1, 1, |0, 1, 0, 0, |0, 0, 1, 1, |0, 1, 1, 1, |0, 0, 1, 1, |0, 1, 1, 1, |1, 1, 1, 1, |1, 1, 1, 0, |0, 1, 1, 1, |0, 1, 1, 0, |1, 1, 1, 1, |1, 1, 1, 1, |1, 1, 1, 0, |0, 0, 0, 0, |1, 1, 1, 0, |1, 1, 1, 1, |1, 1, 1, 1, |1, 1, 1, 1, |1, 1, 0, 1, |0, 1, 1, 1, |0, 0, 0, 0, |0, 0, 1, 1, |0, 0, 0, 1, |1, 1, 1, 1, |1, 1, 1, 1, |0, 0, 1, 1, |1, 1, 0, 1, |1, 1, 0, 1, |1, 0, 0, 1, |0, 0, 1, 1, |1, 1, 1, 1, |1, 1, 1, 0, |1, 1, 1, 1, |0, 1, 1, 1, |0, 0, 0, 1, |0, 0, 1, 1, |0, 0, 0, 0, |1, 0, 0, 1, |0, 1, 1, 1, |1, 1, 1, 1, |1, 1, 1, 1, |0, 1, 1, 1, |0, 1, 1, 1, |1, 1, 1, 1, |1, 1, 1, 1, |1, 0, 0, 1, |0, 1, 1, 1, |1, 0, 1, 1, |0, 1, 1, 1, |1, 1, 1, 1, |0, 0, 1, 0, |0, 1, 0, 0, |1, 0, 1, 1, |1, 1, 1, 1, |0, 1, 1, 1, |1, 1, 1, 1, |0, 0, 1, 1, |1, 1, 1, 0, |1, 0, 1, 1, |0, 0, 1, 1, |0, 1, 0, 1, |1, 1, 1, 1, |1, 1, 1, 1, |0, 1, 0, 1, |0, 1, 1, 1, |1, 1, 1, 1, |1, 1, 1, 1, |1, 1, 0, 1, |1, 1, 1, 1, |1, 1, 1, 1, |0, 0, 1, 1, |1, 1, 1, 1, |0, 1, 1, 0, |1, 1, 1, 1, |1, 1, 1, 1, |1, 1, 1, 1, |0, 0, 1, 1, |0, 1, 1, 1|];
StudentsProgramm = [1, 1, 1, 2, 1, 1, 2, 1, 2, 2];
StudentsDegree = [1, 1, 1, 2, 2, 1, 2, 1, 1, 2];
StudentsSupervisorId = [72, 14, 14, 10, 2, 38, 40, 3, 60, 25];
StudentsCourseIds = [{1, 2, 3}, {1, 2, 3}, {1, 2, 3}, {1, 2}, {2, 3}, {1, 2, 3}, {2, 3}, {1, 2, 3}, {1, 2, 3}, {1, 3}];
StudentsAvailability = [|1, 1, 1, 1, |1, 1, 1, 1, |1, 1, 1, 1, |0, 0, 1, 1, |1, 0, 0, 0, |0, 1, 0, 0, |1, 1, 1, 1, |0, 0, 1, 1, |1, 1, 1, 1, |0, 1, 1, 1|];
TheoryticalMinCard = [0, 0, 0, 0, 0, 1, 0, 0, 0, 0];
CoursesInstructorIds = [{1, 2, 6, 9, 11, 12, 13, 15, 18, 19, 21, 22, 24, 25, 28, 29, 36, 37, 41, 42, 43, 44, 45, 46, 47, 49, 53, 56, 60, 63, 65, 66, 68, 71, 72, 73, 74, 75, 76, 77}, {1, 5, 9, 13, 26, 27, 29, 40, 43, 47, 49, 63, 72, 75, 77, 78}, {6, 7, 10, 14, 21, 22, 23, 28, 36, 44, 45, 47, 49, 51, 52, 77}];
RolesDemands = [10, 5];
RolesContinuity = [1];
ExamLen = [2, 2, 2, 1, 1, 2, 1, 2, 2, 1];
LunchTsMinLen = 0;
LunchStarts = [8..15, 29..33];
SupervisorAvailable = 5;
OptimalLunchLenght = [0, 1];
OptimalStartTs = [2, 0];
OptimalFinishTs = [1, 20];
MinimizeRooms = 100;
RolesSoftContinuity = [|1, 2|3, 1|];
SameDegreeInRoom = 0;
Mergeability = 0;
